(set-info :smt-lib-version 2.6)
(set-logic UF)
(set-info :source |
Generated by: Andrew Reynolds
Generated on: 2017-04-28
Generator: Sledgehammer, converted to v2.6 by CVC4
Application: Verfication goals in Isabelle
Target solver: CVC4, Z3
Publications: "A Decision Procedure for (Co)Datatypes" by Andrew Reynolds and Jasmin Blanchette, CADE 2015.
|)
(set-info :license "https://creativecommons.org/licenses/by/4.0/")
(set-info :category "industrial")
(set-info :status unknown)


(declare-sort A$ 0)
(declare-sort B$ 0)
(declare-sort A_set$ 0)
(declare-sort A_bool_fun$ 0)
(declare-sort A_a_set_fun$ 0)
(declare-sort A_b_option_fun$ 0)
(declare-sort A_set_a_set_fun$ 0)
(declare-sort A_a_bool_fun_fun$ 0)
(declare-sort A_b_rbt_bool_fun$ 0)
(declare-sort A_set_a_set_a_set_fun_fun$ 0)
(declare-sort A_b_rbt_a_b_option_fun_fun$ 0)
(declare-sort B_option$ 0)
(declare-sort Color$ 0)
(declare-sort A_b_rbt$ 0)
(declare-fun none$ () B_option$)
(declare-fun the$ (B_option$) B$)
(declare-fun some$ (B$) B_option$)
(declare-fun r$ () Color$)
(declare-fun b$ () Color$)
(declare-fun empty$ () A_b_rbt$)
(declare-fun select$ (A_b_rbt$) Color$)
(declare-fun selecta$ (A_b_rbt$) A_b_rbt$)
(declare-fun selectb$ (A_b_rbt$) A$)
(declare-fun selectc$ (A_b_rbt$) B$)
(declare-fun selectd$ (A_b_rbt$) A_b_rbt$)
(declare-fun branch$ (Color$ A_b_rbt$ A$ B$ A_b_rbt$) A_b_rbt$)
(declare-fun a$ () A$)
(declare-fun b$a () B$)
(declare-fun t1$ () A_b_rbt$)
(declare-fun t2$ () A_b_rbt$)
(declare-fun uu$ (A_set$) A_bool_fun$)
(declare-fun dom$ (A_b_option_fun$) A_set$)
(declare-fun sup$ (A_set$) A_set_a_set_fun$)
(declare-fun less$ () A_a_bool_fun_fun$)
(declare-fun color$ () Color$)
(declare-fun less$a (A_set$ A_set$) Bool)
(declare-fun insert$ (A$) A_set_a_set_fun$)
(declare-fun member$ (A$ A_set$) Bool)
(declare-fun collect$ (A_bool_fun$) A_set$)
(declare-fun fun_app$ (A_bool_fun$ A$) Bool)
(declare-fun less_eq$ (A_set$ A_set$) Bool)
(declare-fun fun_app$a (A_b_rbt_a_b_option_fun_fun$ A_b_rbt$) A_b_option_fun$)
(declare-fun fun_app$b (A_set_a_set_fun$ A_set$) A_set$)
(declare-fun fun_app$c (A_a_bool_fun_fun$ A$) A_bool_fun$)
(declare-fun fun_app$d (A_a_set_fun$ A$) A_set$)
(declare-fun fun_app$e (A_b_rbt_bool_fun$ A_b_rbt$) Bool)
(declare-fun fun_app$f (A_b_option_fun$ A$) B_option$)
(declare-fun fun_app$g (A_set_a_set_a_set_fun_fun$ A_set$) A_set_a_set_fun$)
(declare-fun rbt_less$ (A_a_bool_fun_fun$ A$) A_b_rbt_bool_fun$)
(declare-fun rbt_lookup$ (A_a_bool_fun_fun$) A_b_rbt_a_b_option_fun_fun$)
(declare-fun rbt_sorted$ (A_a_bool_fun_fun$) A_b_rbt_bool_fun$)
(declare-fun rbt_greater$ (A_a_bool_fun_fun$ A$) A_b_rbt_bool_fun$)
(declare-fun strict_mono$ (A_a_bool_fun_fun$ A_a_set_fun$) Bool)
(assert (forall ((?v0 A_set$) (?v1 A$)) (! (= (fun_app$ (uu$ ?v0) ?v1) (member$ ?v1 ?v0)) :pattern ((fun_app$ (uu$ ?v0) ?v1)))))
(assert (not (less_eq$ (dom$ (fun_app$a (rbt_lookup$ less$) (branch$ color$ t1$ a$ b$a t2$))) (fun_app$b (insert$ a$) (fun_app$b (sup$ (dom$ (fun_app$a (rbt_lookup$ less$) t1$))) (dom$ (fun_app$a (rbt_lookup$ less$) t2$)))))))
(assert (forall ((?v0 A$) (?v1 A$)) (= (not (fun_app$ (fun_app$c less$ ?v0) ?v1)) (or (fun_app$ (fun_app$c less$ ?v1) ?v0) (= ?v0 ?v1))) ))
(assert (forall ((?v0 A$) (?v1 A$)) (= (not (= ?v0 ?v1)) (or (fun_app$ (fun_app$c less$ ?v0) ?v1) (fun_app$ (fun_app$c less$ ?v1) ?v0))) ))
(assert (forall ((?v0 A$) (?v1 A$)) (=> (and (=> (fun_app$ (fun_app$c less$ ?v0) ?v1) false) (and (=> (= ?v0 ?v1) false) (=> (fun_app$ (fun_app$c less$ ?v1) ?v0) false))) false) ))
(assert (forall ((?v0 A$) (?v1 A$)) (=> (and (fun_app$ (fun_app$c less$ ?v0) ?v1) (=> (not false) (fun_app$ (fun_app$c less$ ?v1) ?v0))) false) ))
(assert (forall ((?v0 A$) (?v1 A$) (?v2 A$)) (=> (and (fun_app$ (fun_app$c less$ ?v0) ?v1) (fun_app$ (fun_app$c less$ ?v1) ?v2)) (fun_app$ (fun_app$c less$ ?v0) ?v2)) ))
(assert (forall ((?v0 A$) (?v1 A$) (?v2 A$)) (=> (and (fun_app$ (fun_app$c less$ ?v0) ?v1) (fun_app$ (fun_app$c less$ ?v1) ?v2)) (fun_app$ (fun_app$c less$ ?v0) ?v2)) ))
(assert (forall ((?v0 A$) (?v1 A$) (?v2 A$)) (=> (and (fun_app$ (fun_app$c less$ ?v0) ?v1) (fun_app$ (fun_app$c less$ ?v2) ?v0)) (fun_app$ (fun_app$c less$ ?v2) ?v1)) ))
(assert (forall ((?v0 A$) (?v1 A$)) (=> (and (fun_app$ (fun_app$c less$ ?v0) ?v1) (fun_app$ (fun_app$c less$ ?v1) ?v0)) false) ))
(assert (forall ((?v0 A$) (?v1 A$)) (=> (and (fun_app$ (fun_app$c less$ ?v0) ?v1) (fun_app$ (fun_app$c less$ ?v1) ?v0)) false) ))
(assert (forall ((?v0 A$) (?v1 A$)) (=> (and (fun_app$ (fun_app$c less$ ?v0) ?v1) (fun_app$ (fun_app$c less$ ?v1) ?v0)) false) ))
(assert (forall ((?v0 A$) (?v1 A$) (?v2 A$)) (=> (and (fun_app$ (fun_app$c less$ ?v0) ?v1) (= ?v1 ?v2)) (fun_app$ (fun_app$c less$ ?v0) ?v2)) ))
(assert (forall ((?v0 A$) (?v1 A$)) (=> (fun_app$ (fun_app$c less$ ?v0) ?v1) (= (= ?v1 ?v0) false)) ))
(assert (forall ((?v0 A$) (?v1 A$)) (=> (fun_app$ (fun_app$c less$ ?v0) ?v1) (= (= ?v0 ?v1) false)) ))
(assert (forall ((?v0 A$) (?v1 A$) (?v2 Bool)) (=> (fun_app$ (fun_app$c less$ ?v0) ?v1) (= (=> (fun_app$ (fun_app$c less$ ?v1) ?v0) ?v2) true)) ))
(assert (forall ((?v0 A$) (?v1 A$)) (=> (fun_app$ (fun_app$c less$ ?v0) ?v1) (= (not (fun_app$ (fun_app$c less$ ?v1) ?v0)) true)) ))
(assert (forall ((?v0 A$) (?v1 A$)) (=> (fun_app$ (fun_app$c less$ ?v0) ?v1) (not (fun_app$ (fun_app$c less$ ?v1) ?v0))) ))
(assert (forall ((?v0 A$) (?v1 A$)) (=> (fun_app$ (fun_app$c less$ ?v0) ?v1) (not (= ?v0 ?v1))) ))
(assert (forall ((?v0 A$) (?v1 A$)) (=> (fun_app$ (fun_app$c less$ ?v0) ?v1) (not (= ?v0 ?v1))) ))
(assert (forall ((?v0 A$) (?v1 A$)) (=> (fun_app$ (fun_app$c less$ ?v0) ?v1) (not (= ?v1 ?v0))) ))
(assert (forall ((?v0 A$) (?v1 A$) (?v2 A$)) (=> (and (= ?v0 ?v1) (fun_app$ (fun_app$c less$ ?v1) ?v2)) (fun_app$ (fun_app$c less$ ?v0) ?v2)) ))
(assert (forall ((?v0 A$) (?v1 A$)) (=> (not (fun_app$ (fun_app$c less$ ?v0) ?v1)) (= (not (fun_app$ (fun_app$c less$ ?v1) ?v0)) (= ?v1 ?v0))) ))
(assert (forall ((?v0 A$) (?v1 A$)) (=> (and (not (= ?v0 ?v1)) (and (=> (fun_app$ (fun_app$c less$ ?v0) ?v1) false) (=> (fun_app$ (fun_app$c less$ ?v1) ?v0) false))) false) ))
(assert (forall ((?v0 A$) (?v1 A$)) (or (fun_app$ (fun_app$c less$ ?v0) ?v1) (or (= ?v0 ?v1) (fun_app$ (fun_app$c less$ ?v1) ?v0))) ))
(assert (forall ((?v0 A$)) (not (fun_app$ (fun_app$c less$ ?v0) ?v0)) ))
(assert (forall ((?v0 A$)) (not (fun_app$ (fun_app$c less$ ?v0) ?v0)) ))
(assert (forall ((?v0 Color$) (?v1 A_b_rbt$) (?v2 A$) (?v3 B$) (?v4 A_b_rbt$) (?v5 Color$) (?v6 A_b_rbt$) (?v7 A$) (?v8 B$) (?v9 A_b_rbt$)) (= (= (branch$ ?v0 ?v1 ?v2 ?v3 ?v4) (branch$ ?v5 ?v6 ?v7 ?v8 ?v9)) (and (= ?v0 ?v5) (and (= ?v1 ?v6) (and (= ?v2 ?v7) (and (= ?v3 ?v8) (= ?v4 ?v9)))))) ))
(assert (forall ((?v0 A_a_set_fun$) (?v1 A$) (?v2 A$)) (=> (strict_mono$ less$ ?v0) (= (= (fun_app$d ?v0 ?v1) (fun_app$d ?v0 ?v2)) (= ?v1 ?v2))) ))
(assert (forall ((?v0 Color$) (?v1 A_b_rbt$) (?v2 A$) (?v3 B$) (?v4 A_b_rbt$)) (=> (fun_app$e (rbt_sorted$ less$) (branch$ ?v0 ?v1 ?v2 ?v3 ?v4)) (= (dom$ (fun_app$a (rbt_lookup$ less$) (branch$ ?v0 ?v1 ?v2 ?v3 ?v4))) (fun_app$b (insert$ ?v2) (fun_app$b (sup$ (dom$ (fun_app$a (rbt_lookup$ less$) ?v1))) (dom$ (fun_app$a (rbt_lookup$ less$) ?v4)))))) ))
(assert (forall ((?v0 A$) (?v1 A_set$) (?v2 A_set$)) (= (fun_app$b (sup$ (fun_app$b (insert$ ?v0) ?v1)) ?v2) (fun_app$b (insert$ ?v0) (fun_app$b (sup$ ?v1) ?v2))) ))
(assert (forall ((?v0 A_set$) (?v1 A$) (?v2 A_set$)) (= (fun_app$b (sup$ ?v0) (fun_app$b (insert$ ?v1) ?v2)) (fun_app$b (insert$ ?v1) (fun_app$b (sup$ ?v0) ?v2))) ))
(assert (forall ((?v0 A_set$) (?v1 A_set$) (?v2 A_set$)) (= (less_eq$ (fun_app$b (sup$ ?v0) ?v1) ?v2) (and (less_eq$ ?v0 ?v2) (less_eq$ ?v1 ?v2))) ))
(assert (forall ((?v0 A$) (?v1 A_set$) (?v2 A_set$)) (= (less_eq$ (fun_app$b (insert$ ?v0) ?v1) ?v2) (and (member$ ?v0 ?v2) (less_eq$ ?v1 ?v2))) ))
(assert (forall ((?v0 A$) (?v1 A_b_rbt$) (?v2 A$)) (=> (and (fun_app$e (rbt_less$ less$ ?v0) ?v1) (fun_app$ (fun_app$c less$ ?v0) ?v2)) (fun_app$e (rbt_less$ less$ ?v2) ?v1)) ))
(assert (forall ((?v0 A$) (?v1 A$) (?v2 A_b_rbt$)) (=> (and (fun_app$ (fun_app$c less$ ?v0) ?v1) (fun_app$e (rbt_greater$ less$ ?v1) ?v2)) (fun_app$e (rbt_greater$ less$ ?v0) ?v2)) ))
(assert (forall ((?v0 A_set$) (?v1 A_set$) (?v2 A_set$)) (= (less_eq$ (fun_app$b (sup$ ?v0) ?v1) ?v2) (and (less_eq$ ?v0 ?v2) (less_eq$ ?v1 ?v2))) ))
(assert (forall ((?v0 A_set$) (?v1 A_set$) (?v2 A_set$)) (= (less_eq$ (fun_app$b (sup$ ?v0) ?v1) ?v2) (and (less_eq$ ?v0 ?v2) (less_eq$ ?v1 ?v2))) ))
(assert (forall ((?v0 Color$) (?v1 A_b_rbt$) (?v2 A$) (?v3 B$) (?v4 A_b_rbt$) (?v5 A$)) (! (= (fun_app$f (fun_app$a (rbt_lookup$ less$) (branch$ ?v0 ?v1 ?v2 ?v3 ?v4)) ?v5) (ite (fun_app$ (fun_app$c less$ ?v5) ?v2) (fun_app$f (fun_app$a (rbt_lookup$ less$) ?v1) ?v5) (ite (fun_app$ (fun_app$c less$ ?v2) ?v5) (fun_app$f (fun_app$a (rbt_lookup$ less$) ?v4) ?v5) (some$ ?v3)))) :pattern ((fun_app$f (fun_app$a (rbt_lookup$ less$) (branch$ ?v0 ?v1 ?v2 ?v3 ?v4)) ?v5)))))
(assert (forall ((?v0 A$) (?v1 A_set$) (?v2 A_set$)) (= (member$ ?v0 (fun_app$b (sup$ ?v1) ?v2)) (or (member$ ?v0 ?v1) (member$ ?v0 ?v2))) ))
(assert (forall ((?v0 A$) (?v1 A_set$) (?v2 A_set$)) (=> (=> (not (member$ ?v0 ?v1)) (member$ ?v0 ?v2)) (member$ ?v0 (fun_app$b (sup$ ?v2) ?v1))) ))
(assert (forall ((?v0 A_set$) (?v1 A_set$)) (=> (and (less_eq$ ?v0 ?v1) (less_eq$ ?v1 ?v0)) (= ?v0 ?v1)) ))
(assert (forall ((?v0 A_set$) (?v1 A_set$)) (=> (forall ((?v2 A$)) (=> (member$ ?v2 ?v0) (member$ ?v2 ?v1)) ) (less_eq$ ?v0 ?v1)) ))
(assert (forall ((?v0 A$) (?v1 A_set$) (?v2 A$)) (=> (=> (not (member$ ?v0 ?v1)) (= ?v0 ?v2)) (member$ ?v0 (fun_app$b (insert$ ?v2) ?v1))) ))
(assert (forall ((?v0 A$) (?v1 A$) (?v2 A_set$)) (= (member$ ?v0 (fun_app$b (insert$ ?v1) ?v2)) (or (= ?v0 ?v1) (member$ ?v0 ?v2))) ))
(assert (forall ((?v0 A$) (?v1 A_set$)) (= (fun_app$b (insert$ ?v0) (fun_app$b (insert$ ?v0) ?v1)) (fun_app$b (insert$ ?v0) ?v1)) ))
(assert (forall ((?v0 A_set$)) (! (= (fun_app$b (sup$ ?v0) ?v0) ?v0) :pattern ((sup$ ?v0)))))
(assert (forall ((?v0 A_bool_fun$) (?v1 A_bool_fun$)) (=> (forall ((?v2 A$)) (= (fun_app$ ?v0 ?v2) (fun_app$ ?v1 ?v2)) ) (= (collect$ ?v0) (collect$ ?v1))) ))
(assert (forall ((?v0 A_set$)) (= (collect$ (uu$ ?v0)) ?v0) ))
(assert (forall ((?v0 A$) (?v1 A_bool_fun$)) (= (member$ ?v0 (collect$ ?v1)) (fun_app$ ?v1 ?v0)) ))
(assert (forall ((?v0 A_set$)) (! (= (fun_app$b (sup$ ?v0) ?v0) ?v0) :pattern ((sup$ ?v0)))))
(assert (forall ((?v0 A_set$) (?v1 A_set$)) (= (fun_app$b (sup$ ?v0) (fun_app$b (sup$ ?v0) ?v1)) (fun_app$b (sup$ ?v0) ?v1)) ))
(assert (forall ((?v0 A_set$) (?v1 A_set$)) (= (fun_app$b (sup$ ?v0) (fun_app$b (sup$ ?v0) ?v1)) (fun_app$b (sup$ ?v0) ?v1)) ))
(assert (forall ((?v0 A_set$) (?v1 A_set$)) (= (fun_app$b (sup$ (fun_app$b (sup$ ?v0) ?v1)) ?v1) (fun_app$b (sup$ ?v0) ?v1)) ))
(assert (forall ((?v0 Color$) (?v1 A_b_rbt$) (?v2 A$) (?v3 B$) (?v4 A_b_rbt$)) (! (= (fun_app$e (rbt_sorted$ less$) (branch$ ?v0 ?v1 ?v2 ?v3 ?v4)) (and (fun_app$e (rbt_less$ less$ ?v2) ?v1) (and (fun_app$e (rbt_greater$ less$ ?v2) ?v4) (and (fun_app$e (rbt_sorted$ less$) ?v1) (fun_app$e (rbt_sorted$ less$) ?v4))))) :pattern ((branch$ ?v0 ?v1 ?v2 ?v3 ?v4)))))
(assert (forall ((?v0 A$) (?v1 Color$) (?v2 A_b_rbt$) (?v3 A$) (?v4 B$) (?v5 A_b_rbt$)) (! (= (fun_app$e (rbt_greater$ less$ ?v0) (branch$ ?v1 ?v2 ?v3 ?v4 ?v5)) (and (fun_app$ (fun_app$c less$ ?v0) ?v3) (and (fun_app$e (rbt_greater$ less$ ?v0) ?v2) (fun_app$e (rbt_greater$ less$ ?v0) ?v5)))) :pattern ((fun_app$e (rbt_greater$ less$ ?v0) (branch$ ?v1 ?v2 ?v3 ?v4 ?v5))))))
(assert (forall ((?v0 A$) (?v1 Color$) (?v2 A_b_rbt$) (?v3 A$) (?v4 B$) (?v5 A_b_rbt$)) (! (= (fun_app$e (rbt_less$ less$ ?v0) (branch$ ?v1 ?v2 ?v3 ?v4 ?v5)) (and (fun_app$ (fun_app$c less$ ?v3) ?v0) (and (fun_app$e (rbt_less$ less$ ?v0) ?v2) (fun_app$e (rbt_less$ less$ ?v0) ?v5)))) :pattern ((fun_app$e (rbt_less$ less$ ?v0) (branch$ ?v1 ?v2 ?v3 ?v4 ?v5))))))
(assert (forall ((?v0 A_a_bool_fun_fun$) (?v1 Color$) (?v2 A_b_rbt$) (?v3 A$) (?v4 B$) (?v5 A_b_rbt$)) (! (= (fun_app$e (rbt_sorted$ ?v0) (branch$ ?v1 ?v2 ?v3 ?v4 ?v5)) (and (fun_app$e (rbt_less$ ?v0 ?v3) ?v2) (and (fun_app$e (rbt_greater$ ?v0 ?v3) ?v5) (and (fun_app$e (rbt_sorted$ ?v0) ?v2) (fun_app$e (rbt_sorted$ ?v0) ?v5))))) :pattern ((fun_app$e (rbt_sorted$ ?v0) (branch$ ?v1 ?v2 ?v3 ?v4 ?v5))))))
(assert (forall ((?v0 A_a_bool_fun_fun$) (?v1 Color$) (?v2 A_b_rbt$) (?v3 A$) (?v4 B$) (?v5 A_b_rbt$) (?v6 A$)) (! (= (fun_app$f (fun_app$a (rbt_lookup$ ?v0) (branch$ ?v1 ?v2 ?v3 ?v4 ?v5)) ?v6) (ite (fun_app$ (fun_app$c ?v0 ?v6) ?v3) (fun_app$f (fun_app$a (rbt_lookup$ ?v0) ?v2) ?v6) (ite (fun_app$ (fun_app$c ?v0 ?v3) ?v6) (fun_app$f (fun_app$a (rbt_lookup$ ?v0) ?v5) ?v6) (some$ ?v4)))) :pattern ((fun_app$f (fun_app$a (rbt_lookup$ ?v0) (branch$ ?v1 ?v2 ?v3 ?v4 ?v5)) ?v6)))))
(assert (forall ((?v0 A_a_bool_fun_fun$) (?v1 A$) (?v2 Color$) (?v3 A_b_rbt$) (?v4 A$) (?v5 B$) (?v6 A_b_rbt$)) (! (= (fun_app$e (rbt_greater$ ?v0 ?v1) (branch$ ?v2 ?v3 ?v4 ?v5 ?v6)) (and (fun_app$ (fun_app$c ?v0 ?v1) ?v4) (and (fun_app$e (rbt_greater$ ?v0 ?v1) ?v3) (fun_app$e (rbt_greater$ ?v0 ?v1) ?v6)))) :pattern ((fun_app$e (rbt_greater$ ?v0 ?v1) (branch$ ?v2 ?v3 ?v4 ?v5 ?v6))))))
(assert (forall ((?v0 A_a_bool_fun_fun$) (?v1 A$) (?v2 Color$) (?v3 A_b_rbt$) (?v4 A$) (?v5 B$) (?v6 A_b_rbt$)) (! (= (fun_app$e (rbt_less$ ?v0 ?v1) (branch$ ?v2 ?v3 ?v4 ?v5 ?v6)) (and (fun_app$ (fun_app$c ?v0 ?v4) ?v1) (and (fun_app$e (rbt_less$ ?v0 ?v1) ?v3) (fun_app$e (rbt_less$ ?v0 ?v1) ?v6)))) :pattern ((fun_app$e (rbt_less$ ?v0 ?v1) (branch$ ?v2 ?v3 ?v4 ?v5 ?v6))))))
(assert (forall ((?v0 A_set$)) (less_eq$ ?v0 ?v0) ))
(assert (forall ((?v0 A_set$) (?v1 A_set$) (?v2 A$)) (=> (and (less_eq$ ?v0 ?v1) (member$ ?v2 ?v0)) (member$ ?v2 ?v1)) ))
(assert (forall ((?v0 A_set$) (?v1 A_set$) (?v2 A$)) (=> (and (less_eq$ ?v0 ?v1) (not (member$ ?v2 ?v1))) (not (member$ ?v2 ?v0))) ))
(assert (forall ((?v0 A_set$) (?v1 A_set$) (?v2 A_set$)) (=> (and (less_eq$ ?v0 ?v1) (less_eq$ ?v1 ?v2)) (less_eq$ ?v0 ?v2)) ))
(assert (forall ((?v0 A_set$) (?v1 A_set$) (?v2 A$)) (=> (and (less_eq$ ?v0 ?v1) (member$ ?v2 ?v0)) (member$ ?v2 ?v1)) ))
(assert (forall ((?v0 A_set$) (?v1 A_set$) (?v2 A$)) (=> (and (less_eq$ ?v0 ?v1) (member$ ?v2 ?v0)) (member$ ?v2 ?v1)) ))
(assert (forall ((?v0 A_set$) (?v1 A_set$) (?v2 A$)) (=> (and (less_eq$ ?v0 ?v1) (and (=> (not (member$ ?v2 ?v0)) false) (=> (member$ ?v2 ?v1) false))) false) ))
(assert (forall ((?v0 A$) (?v1 A_set$) (?v2 A_set$)) (=> (and (member$ ?v0 ?v1) (less_eq$ ?v1 ?v2)) (member$ ?v0 ?v2)) ))
(assert (forall ((?v0 A$) (?v1 A_set$) (?v2 A_set$)) (=> (and (member$ ?v0 ?v1) (less_eq$ ?v1 ?v2)) (member$ ?v0 ?v2)) ))
(assert (forall ((?v0 A_set$) (?v1 A_set$)) (=> (= ?v0 ?v1) (less_eq$ ?v0 ?v1)) ))
(assert (forall ((?v0 A_set$) (?v1 A_set$)) (=> (= ?v0 ?v1) (less_eq$ ?v1 ?v0)) ))
(assert (forall ((?v0 A_set$) (?v1 A_set$)) (=> (and (= ?v0 ?v1) (=> (and (less_eq$ ?v0 ?v1) (less_eq$ ?v1 ?v0)) false)) false) ))
(assert (forall ((?v0 A_bool_fun$) (?v1 A_bool_fun$)) (=> (forall ((?v2 A$)) (=> (fun_app$ ?v0 ?v2) (fun_app$ ?v1 ?v2)) ) (less_eq$ (collect$ ?v0) (collect$ ?v1))) ))
(assert (forall ((?v0 A_set$) (?v1 A_set$)) (= (less_eq$ ?v0 ?v1) (forall ((?v2 A$)) (=> (member$ ?v2 ?v0) (member$ ?v2 ?v1)) )) ))
(assert (forall ((?v0 A_bool_fun$) (?v1 A_bool_fun$)) (= (less_eq$ (collect$ ?v0) (collect$ ?v1)) (forall ((?v2 A$)) (=> (fun_app$ ?v0 ?v2) (fun_app$ ?v1 ?v2)) )) ))
(assert (forall ((?v0 A_set$) (?v1 A_set$)) (= (less_eq$ ?v0 ?v1) (forall ((?v2 A$)) (=> (member$ ?v2 ?v0) (member$ ?v2 ?v1)) )) ))
(assert (forall ((?v0 A_set$) (?v1 A_set$)) (= (= ?v0 ?v1) (and (less_eq$ ?v0 ?v1) (less_eq$ ?v1 ?v0))) ))
(assert (forall ((?v0 A$) (?v1 A_set$)) (member$ ?v0 (fun_app$b (insert$ ?v0) ?v1)) ))
(assert (forall ((?v0 A$) (?v1 A_set$) (?v2 A_set$)) (=> (and (not (member$ ?v0 ?v1)) (not (member$ ?v0 ?v2))) (= (= (fun_app$b (insert$ ?v0) ?v1) (fun_app$b (insert$ ?v0) ?v2)) (= ?v1 ?v2))) ))
(assert (forall ((?v0 A$) (?v1 A_set$) (?v2 A$) (?v3 A_set$)) (=> (and (not (member$ ?v0 ?v1)) (not (member$ ?v2 ?v3))) (= (= (fun_app$b (insert$ ?v0) ?v1) (fun_app$b (insert$ ?v2) ?v3)) (ite (= ?v0 ?v2) (= ?v1 ?v3) (exists ((?v4 A_set$)) (and (= ?v1 (fun_app$b (insert$ ?v2) ?v4)) (and (not (member$ ?v2 ?v4)) (and (= ?v3 (fun_app$b (insert$ ?v0) ?v4)) (not (member$ ?v0 ?v4))))) )))) ))
(assert (forall ((?v0 A$) (?v1 A_set$)) (=> (member$ ?v0 ?v1) (exists ((?v2 A_set$)) (and (= ?v1 (fun_app$b (insert$ ?v0) ?v2)) (not (member$ ?v0 ?v2))) )) ))
(assert (forall ((?v0 A$) (?v1 A_set$) (?v2 A$)) (=> (member$ ?v0 ?v1) (member$ ?v0 (fun_app$b (insert$ ?v2) ?v1))) ))
(assert (forall ((?v0 A$) (?v1 A_set$)) (! (=> (member$ ?v0 ?v1) (= (fun_app$b (insert$ ?v0) ?v1) ?v1)) :pattern ((fun_app$b (insert$ ?v0) ?v1)))))
(assert (forall ((?v0 A$) (?v1 A_set$)) (=> (and (member$ ?v0 ?v1) (forall ((?v2 A_set$)) (=> (and (= ?v1 (fun_app$b (insert$ ?v0) ?v2)) (not (member$ ?v0 ?v2))) false) )) false) ))
(assert (forall ((?v0 A$) (?v1 A$) (?v2 A_set$)) (=> (and (member$ ?v0 (fun_app$b (insert$ ?v1) ?v2)) (and (=> (= ?v0 ?v1) false) (=> (member$ ?v0 ?v2) false))) false) ))
(assert (forall ((?v0 A$) (?v1 A$) (?v2 A_set$)) (= (fun_app$b (insert$ ?v0) (fun_app$b (insert$ ?v1) ?v2)) (fun_app$b (insert$ ?v1) (fun_app$b (insert$ ?v0) ?v2))) ))
(assert (forall ((?v0 A_set$) (?v1 A_set$)) (= (fun_app$b (sup$ ?v0) ?v1) (fun_app$b (sup$ ?v1) ?v0)) ))
(assert (forall ((?v0 A_set$) (?v1 A_set$)) (= (fun_app$b (sup$ ?v0) ?v1) (fun_app$b (sup$ ?v1) ?v0)) ))
(assert (forall ((?v0 A_set$) (?v1 A_set$)) (= (fun_app$b (sup$ ?v0) ?v1) (fun_app$b (sup$ ?v1) ?v0)) ))
(assert (forall ((?v0 A_set$) (?v1 A_set$)) (= (fun_app$b (sup$ ?v0) (fun_app$b (sup$ ?v0) ?v1)) (fun_app$b (sup$ ?v0) ?v1)) ))
(assert (forall ((?v0 A_set$) (?v1 A_set$) (?v2 A_set$)) (= (fun_app$b (sup$ ?v0) (fun_app$b (sup$ ?v1) ?v2)) (fun_app$b (sup$ ?v1) (fun_app$b (sup$ ?v0) ?v2))) ))
(assert (forall ((?v0 A_set$) (?v1 A_set$) (?v2 A_set$)) (= (fun_app$b (sup$ ?v0) (fun_app$b (sup$ ?v1) ?v2)) (fun_app$b (sup$ ?v1) (fun_app$b (sup$ ?v0) ?v2))) ))
(assert (forall ((?v0 A_set$) (?v1 A_set$) (?v2 A_set$)) (= (fun_app$b (sup$ ?v0) (fun_app$b (sup$ ?v1) ?v2)) (fun_app$b (sup$ ?v1) (fun_app$b (sup$ ?v0) ?v2))) ))
(assert (forall ((?v0 A_set$) (?v1 A_set$) (?v2 A_set$)) (= (fun_app$b (sup$ (fun_app$b (sup$ ?v0) ?v1)) ?v2) (fun_app$b (sup$ ?v0) (fun_app$b (sup$ ?v1) ?v2))) ))
(assert (forall ((?v0 A_set$) (?v1 A_set$) (?v2 A_set$)) (= (fun_app$b (sup$ (fun_app$b (sup$ ?v0) ?v1)) ?v2) (fun_app$b (sup$ ?v0) (fun_app$b (sup$ ?v1) ?v2))) ))
(assert (forall ((?v0 A_set$) (?v1 A_set$) (?v2 A_set$)) (= (fun_app$b (sup$ (fun_app$b (sup$ ?v0) ?v1)) ?v2) (fun_app$b (sup$ ?v0) (fun_app$b (sup$ ?v1) ?v2))) ))
(assert (forall ((?v0 A$) (?v1 A_set$) (?v2 A_set$)) (=> (member$ ?v0 ?v1) (member$ ?v0 (fun_app$b (sup$ ?v1) ?v2))) ))
(assert (forall ((?v0 A$) (?v1 A_set$) (?v2 A_set$)) (=> (member$ ?v0 ?v1) (member$ ?v0 (fun_app$b (sup$ ?v2) ?v1))) ))
(assert (forall ((?v0 A$) (?v1 A_set$) (?v2 A_set$)) (=> (and (member$ ?v0 (fun_app$b (sup$ ?v1) ?v2)) (and (=> (member$ ?v0 ?v1) false) (=> (member$ ?v0 ?v2) false))) false) ))
(assert (forall ((?v0 A_set$)) (! (= (fun_app$b (sup$ ?v0) ?v0) ?v0) :pattern ((sup$ ?v0)))))
(assert (forall ((?v0 A_set$) (?v1 A_set$)) (= (fun_app$b (sup$ ?v0) ?v1) (fun_app$b (sup$ ?v1) ?v0)) ))
(assert (forall ((?v0 A_set$) (?v1 A_set$)) (= (fun_app$b (sup$ ?v0) (fun_app$b (sup$ ?v0) ?v1)) (fun_app$b (sup$ ?v0) ?v1)) ))
(assert (forall ((?v0 A_set$) (?v1 A_set$) (?v2 A_set$)) (= (fun_app$b (sup$ ?v0) (fun_app$b (sup$ ?v1) ?v2)) (fun_app$b (sup$ ?v1) (fun_app$b (sup$ ?v0) ?v2))) ))
(assert (forall ((?v0 A_set$) (?v1 A_set$) (?v2 A_set$)) (= (fun_app$b (sup$ (fun_app$b (sup$ ?v0) ?v1)) ?v2) (fun_app$b (sup$ ?v0) (fun_app$b (sup$ ?v1) ?v2))) ))
(assert (forall ((?v0 A_set$) (?v1 A_set$) (?v2 A_bool_fun$)) (= (forall ((?v3 A$)) (=> (member$ ?v3 (fun_app$b (sup$ ?v0) ?v1)) (fun_app$ ?v2 ?v3)) ) (and (forall ((?v3 A$)) (=> (member$ ?v3 ?v0) (fun_app$ ?v2 ?v3)) ) (forall ((?v3 A$)) (=> (member$ ?v3 ?v1) (fun_app$ ?v2 ?v3)) ))) ))
(assert (forall ((?v0 A_set$) (?v1 A_set$) (?v2 A_bool_fun$)) (= (exists ((?v3 A$)) (and (member$ ?v3 (fun_app$b (sup$ ?v0) ?v1)) (fun_app$ ?v2 ?v3)) ) (or (exists ((?v3 A$)) (and (member$ ?v3 ?v0) (fun_app$ ?v2 ?v3)) ) (exists ((?v3 A$)) (and (member$ ?v3 ?v1) (fun_app$ ?v2 ?v3)) ))) ))
(assert (forall ((?v0 A_set$) (?v1 A_set$)) (less_eq$ ?v0 (fun_app$b (sup$ ?v1) ?v0)) ))
(assert (forall ((?v0 A_set$) (?v1 A_set$)) (less_eq$ ?v0 (fun_app$b (sup$ ?v0) ?v1)) ))
(assert (forall ((?v0 A_set$) (?v1 A_set$)) (less_eq$ ?v0 (fun_app$b (sup$ ?v0) ?v1)) ))
(assert (forall ((?v0 A_set$) (?v1 A_set$)) (less_eq$ ?v0 (fun_app$b (sup$ ?v1) ?v0)) ))
(assert (forall ((?v0 A_set$) (?v1 A_set$)) (less_eq$ ?v0 (fun_app$b (sup$ ?v0) ?v1)) ))
(assert (forall ((?v0 A_set$) (?v1 A_set$)) (less_eq$ ?v0 (fun_app$b (sup$ ?v1) ?v0)) ))
(assert (forall ((?v0 A_set$) (?v1 A_set$) (?v2 A_set$)) (=> (less_eq$ ?v0 ?v1) (less_eq$ ?v0 (fun_app$b (sup$ ?v1) ?v2))) ))
(assert (forall ((?v0 A_set$) (?v1 A_set$) (?v2 A_set$)) (=> (less_eq$ ?v0 ?v1) (less_eq$ ?v0 (fun_app$b (sup$ ?v2) ?v1))) ))
(assert (forall ((?v0 A_set$) (?v1 A_set$) (?v2 A_set$)) (=> (less_eq$ ?v0 ?v1) (less_eq$ ?v0 (fun_app$b (sup$ ?v1) ?v2))) ))
(assert (forall ((?v0 A_set$) (?v1 A_set$) (?v2 A_set$)) (=> (less_eq$ ?v0 ?v1) (less_eq$ ?v0 (fun_app$b (sup$ ?v2) ?v1))) ))
(assert (forall ((?v0 A_set$) (?v1 A_set$)) (! (=> (less_eq$ ?v0 ?v1) (= (fun_app$b (sup$ ?v1) ?v0) ?v1)) :pattern ((fun_app$b (sup$ ?v1) ?v0)))))
(assert (forall ((?v0 A_set$) (?v1 A_set$)) (! (=> (less_eq$ ?v0 ?v1) (= (fun_app$b (sup$ ?v0) ?v1) ?v1)) :pattern ((fun_app$b (sup$ ?v0) ?v1)))))
(assert (forall ((?v0 A_set$) (?v1 A_set$)) (! (=> (less_eq$ ?v0 ?v1) (= (fun_app$b (sup$ ?v1) ?v0) ?v1)) :pattern ((fun_app$b (sup$ ?v1) ?v0)))))
(assert (forall ((?v0 A_set$) (?v1 A_set$)) (! (=> (less_eq$ ?v0 ?v1) (= (fun_app$b (sup$ ?v0) ?v1) ?v1)) :pattern ((fun_app$b (sup$ ?v0) ?v1)))))
(assert (forall ((?v0 A_set$) (?v1 A_set$) (?v2 A_set$)) (=> (and (less_eq$ ?v0 ?v1) (less_eq$ ?v2 ?v1)) (less_eq$ (fun_app$b (sup$ ?v0) ?v2) ?v1)) ))
(assert (forall ((?v0 A_set$) (?v1 A_set$) (?v2 A_set$)) (=> (and (less_eq$ ?v0 ?v1) (less_eq$ ?v2 ?v1)) (less_eq$ (fun_app$b (sup$ ?v0) ?v2) ?v1)) ))
(assert (forall ((?v0 A_set$) (?v1 A_set$) (?v2 A_set$)) (=> (and (less_eq$ ?v0 ?v1) (less_eq$ ?v2 ?v1)) (less_eq$ (fun_app$b (sup$ ?v0) ?v2) ?v1)) ))
(assert (forall ((?v0 A_set$) (?v1 A_set$) (?v2 A_set$) (?v3 A_set$)) (=> (and (less_eq$ ?v0 ?v1) (less_eq$ ?v2 ?v3)) (less_eq$ (fun_app$b (sup$ ?v0) ?v2) (fun_app$b (sup$ ?v1) ?v3))) ))
(assert (forall ((?v0 A_set$) (?v1 A_set$) (?v2 A_set$) (?v3 A_set$)) (=> (and (less_eq$ ?v0 ?v1) (less_eq$ ?v2 ?v3)) (less_eq$ (fun_app$b (sup$ ?v0) ?v2) (fun_app$b (sup$ ?v1) ?v3))) ))
(assert (forall ((?v0 A_set$) (?v1 A_set$)) (=> (and (less_eq$ ?v0 ?v1) (=> (= ?v1 (fun_app$b (sup$ ?v1) ?v0)) false)) false) ))
(assert (forall ((?v0 A_set$) (?v1 A_set$) (?v2 A_set$)) (=> (and (less_eq$ (fun_app$b (sup$ ?v0) ?v1) ?v2) (=> (and (less_eq$ ?v0 ?v2) (less_eq$ ?v1 ?v2)) false)) false) ))
(assert (forall ((?v0 A_set$) (?v1 A_set$) (?v2 A_set$)) (=> (and (less_eq$ (fun_app$b (sup$ ?v0) ?v1) ?v2) (=> (and (less_eq$ ?v0 ?v2) (less_eq$ ?v1 ?v2)) false)) false) ))
(assert (forall ((?v0 A_set$) (?v1 A_set$)) (=> (= ?v0 (fun_app$b (sup$ ?v0) ?v1)) (less_eq$ ?v1 ?v0)) ))
(assert (forall ((?v0 A_set_a_set_a_set_fun_fun$) (?v1 A_set$) (?v2 A_set$)) (=> (and (forall ((?v3 A_set$) (?v4 A_set$)) (less_eq$ ?v3 (fun_app$b (fun_app$g ?v0 ?v3) ?v4)) ) (and (forall ((?v3 A_set$) (?v4 A_set$)) (less_eq$ ?v4 (fun_app$b (fun_app$g ?v0 ?v3) ?v4)) ) (forall ((?v3 A_set$) (?v4 A_set$) (?v5 A_set$)) (=> (and (less_eq$ ?v4 ?v3) (less_eq$ ?v5 ?v3)) (less_eq$ (fun_app$b (fun_app$g ?v0 ?v4) ?v5) ?v3)) ))) (= (fun_app$b (sup$ ?v1) ?v2) (fun_app$b (fun_app$g ?v0 ?v1) ?v2))) ))
(assert (forall ((?v0 A_set$) (?v1 A_set$)) (! (= (less_eq$ ?v0 ?v1) (= ?v1 (fun_app$b (sup$ ?v1) ?v0))) :pattern ((less_eq$ ?v0 ?v1)))))
(assert (forall ((?v0 A_set$) (?v1 A_set$)) (! (= (less_eq$ ?v0 ?v1) (= (fun_app$b (sup$ ?v0) ?v1) ?v1)) :pattern ((less_eq$ ?v0 ?v1)))))
(assert (forall ((?v0 A_set$) (?v1 A_set$)) (! (= (less_eq$ ?v0 ?v1) (= (fun_app$b (sup$ ?v1) ?v0) ?v1)) :pattern ((less_eq$ ?v0 ?v1)))))
(assert (forall ((?v0 A_set$) (?v1 A_set$)) (! (= (less_eq$ ?v0 ?v1) (= (fun_app$b (sup$ ?v0) ?v1) ?v1)) :pattern ((less_eq$ ?v0 ?v1)))))
(assert (forall ((?v0 A_set$) (?v1 A$)) (less_eq$ ?v0 (fun_app$b (insert$ ?v1) ?v0)) ))
(assert (forall ((?v0 A$) (?v1 A_set$) (?v2 A_set$)) (=> (not (member$ ?v0 ?v1)) (= (less_eq$ ?v1 (fun_app$b (insert$ ?v0) ?v2)) (less_eq$ ?v1 ?v2))) ))
(assert (forall ((?v0 A_set$) (?v1 A_set$) (?v2 A$)) (=> (less_eq$ ?v0 ?v1) (less_eq$ ?v0 (fun_app$b (insert$ ?v2) ?v1))) ))
(assert (forall ((?v0 A_set$) (?v1 A_set$) (?v2 A$)) (=> (less_eq$ ?v0 ?v1) (less_eq$ (fun_app$b (insert$ ?v2) ?v0) (fun_app$b (insert$ ?v2) ?v1))) ))
(assert (forall ((?v0 A_set$) (?v1 A_set$)) (less_eq$ ?v0 (fun_app$b (sup$ ?v0) ?v1)) ))
(assert (forall ((?v0 A_set$) (?v1 A_set$)) (less_eq$ ?v0 (fun_app$b (sup$ ?v1) ?v0)) ))
(assert (forall ((?v0 A_set$) (?v1 A_set$)) (! (=> (less_eq$ ?v0 ?v1) (= (fun_app$b (sup$ ?v0) ?v1) ?v1)) :pattern ((fun_app$b (sup$ ?v0) ?v1)))))
(assert (forall ((?v0 A_set$) (?v1 A_set$)) (! (=> (less_eq$ ?v0 ?v1) (= (fun_app$b (sup$ ?v1) ?v0) ?v1)) :pattern ((fun_app$b (sup$ ?v1) ?v0)))))
(assert (forall ((?v0 A_set$) (?v1 A_set$) (?v2 A_set$)) (=> (and (less_eq$ ?v0 ?v1) (less_eq$ ?v2 ?v1)) (less_eq$ (fun_app$b (sup$ ?v0) ?v2) ?v1)) ))
(assert (forall ((?v0 A_set$) (?v1 A_set$) (?v2 A_set$) (?v3 A_set$)) (=> (and (less_eq$ ?v0 ?v1) (less_eq$ ?v2 ?v3)) (less_eq$ (fun_app$b (sup$ ?v0) ?v2) (fun_app$b (sup$ ?v1) ?v3))) ))
(assert (forall ((?v0 A_set$) (?v1 A_set$)) (! (= (less_eq$ ?v0 ?v1) (= (fun_app$b (sup$ ?v0) ?v1) ?v1)) :pattern ((less_eq$ ?v0 ?v1)))))
(assert (= (fun_app$e (rbt_sorted$ less$) empty$) true))
(assert (forall ((?v0 A_b_option_fun$) (?v1 A$) (?v2 B$)) (=> (= (fun_app$f ?v0 ?v1) (some$ ?v2)) (= (fun_app$b (insert$ ?v1) (dom$ ?v0)) (dom$ ?v0))) ))
(assert (forall ((?v0 B$) (?v1 B$)) (= (= (some$ ?v0) (some$ ?v1)) (= ?v0 ?v1)) ))
(assert (forall ((?v0 A_a_set_fun$) (?v1 A$) (?v2 A$)) (=> (strict_mono$ less$ ?v0) (= (less$a (fun_app$d ?v0 ?v1) (fun_app$d ?v0 ?v2)) (fun_app$ (fun_app$c less$ ?v1) ?v2))) ))
(assert (forall ((?v0 A_a_set_fun$) (?v1 A$) (?v2 A$)) (=> (and (strict_mono$ less$ ?v0) (fun_app$ (fun_app$c less$ ?v1) ?v2)) (less$a (fun_app$d ?v0 ?v1) (fun_app$d ?v0 ?v2))) ))
(assert (forall ((?v0 A_a_set_fun$)) (=> (forall ((?v1 A$) (?v2 A$)) (=> (fun_app$ (fun_app$c less$ ?v1) ?v2) (less$a (fun_app$d ?v0 ?v1) (fun_app$d ?v0 ?v2))) ) (strict_mono$ less$ ?v0)) ))
(assert (forall ((?v0 A_a_set_fun$)) (= (strict_mono$ less$ ?v0) (forall ((?v1 A$) (?v2 A$)) (=> (fun_app$ (fun_app$c less$ ?v1) ?v2) (less$a (fun_app$d ?v0 ?v1) (fun_app$d ?v0 ?v2))) )) ))
(assert (forall ((?v0 A_set$)) (less_eq$ ?v0 ?v0) ))
(assert (forall ((?v0 A_set$) (?v1 A_set$)) (=> (and (less_eq$ ?v0 ?v1) (not (= ?v0 ?v1))) (less$a ?v0 ?v1)) ))
(assert (forall ((?v0 A$)) (! (= (fun_app$e (rbt_less$ less$ ?v0) empty$) true) :pattern ((rbt_less$ less$ ?v0)))))
(assert (forall ((?v0 A$)) (! (= (fun_app$e (rbt_greater$ less$ ?v0) empty$) true) :pattern ((rbt_greater$ less$ ?v0)))))
(assert (forall ((?v0 A_set$) (?v1 A_set$)) (=> (and (not (= ?v0 ?v1)) (less_eq$ ?v0 ?v1)) (less$a ?v0 ?v1)) ))
(assert (forall ((?v0 A_set$) (?v1 A_set$)) (=> (less_eq$ ?v0 ?v1) (or (less$a ?v0 ?v1) (= ?v0 ?v1))) ))
(assert (forall ((?v0 A_set$) (?v1 A_set$)) (=> (and (less_eq$ ?v0 ?v1) (not (= ?v0 ?v1))) (less$a ?v0 ?v1)) ))
(assert (forall ((?v0 A_set$) (?v1 A_set$) (?v2 A_set$)) (=> (and (less_eq$ ?v0 ?v1) (less$a ?v1 ?v2)) (less$a ?v0 ?v2)) ))
(assert (forall ((?v0 A_set$) (?v1 A_set$) (?v2 A_set$)) (=> (and (less_eq$ ?v0 ?v1) (less$a ?v1 ?v2)) (less$a ?v0 ?v2)) ))
(assert (forall ((?v0 A_set$) (?v1 A_set$) (?v2 A_set$)) (=> (and (less_eq$ ?v0 ?v1) (less$a ?v2 ?v0)) (less$a ?v2 ?v1)) ))
(assert (forall ((?v0 A_set$) (?v1 A_set_a_set_fun$) (?v2 A_set$) (?v3 A_set$)) (=> (and (less_eq$ ?v0 (fun_app$b ?v1 ?v2)) (and (less$a ?v2 ?v3) (forall ((?v4 A_set$) (?v5 A_set$)) (=> (less$a ?v4 ?v5) (less$a (fun_app$b ?v1 ?v4) (fun_app$b ?v1 ?v5))) ))) (less$a ?v0 (fun_app$b ?v1 ?v3))) ))
(assert (forall ((?v0 A_set$) (?v1 A_set$) (?v2 A_set_a_set_fun$) (?v3 A_set$)) (=> (and (less_eq$ ?v0 ?v1) (and (less$a (fun_app$b ?v2 ?v1) ?v3) (forall ((?v4 A_set$) (?v5 A_set$)) (=> (less_eq$ ?v4 ?v5) (less_eq$ (fun_app$b ?v2 ?v4) (fun_app$b ?v2 ?v5))) ))) (less$a (fun_app$b ?v2 ?v0) ?v3)) ))
(assert (forall ((?v0 A_set$) (?v1 A_set$)) (=> (less$a ?v0 ?v1) (less_eq$ ?v0 ?v1)) ))
(assert (forall ((?v0 A_set$) (?v1 A_set$)) (=> (less$a ?v0 ?v1) (less_eq$ ?v0 ?v1)) ))
(assert (forall ((?v0 A_set$) (?v1 A_set$)) (=> (less$a ?v0 ?v1) (less_eq$ ?v0 ?v1)) ))
(assert (forall ((?v0 A_set$) (?v1 A_set$) (?v2 A_set$)) (=> (and (less$a ?v0 ?v1) (less_eq$ ?v1 ?v2)) (less$a ?v0 ?v2)) ))
(assert (forall ((?v0 A_set$) (?v1 A_set$) (?v2 A_set$)) (=> (and (less$a ?v0 ?v1) (less_eq$ ?v1 ?v2)) (less$a ?v0 ?v2)) ))
(assert (forall ((?v0 A_set$) (?v1 A_set$) (?v2 A_set$)) (=> (and (less$a ?v0 ?v1) (less_eq$ ?v2 ?v0)) (less$a ?v2 ?v1)) ))
(assert (forall ((?v0 A_set$) (?v1 A_set_a_set_fun$) (?v2 A_set$) (?v3 A_set$)) (=> (and (less$a ?v0 (fun_app$b ?v1 ?v2)) (and (less_eq$ ?v2 ?v3) (forall ((?v4 A_set$) (?v5 A_set$)) (=> (less_eq$ ?v4 ?v5) (less_eq$ (fun_app$b ?v1 ?v4) (fun_app$b ?v1 ?v5))) ))) (less$a ?v0 (fun_app$b ?v1 ?v3))) ))
(assert (forall ((?v0 A_set$) (?v1 A_set$) (?v2 A_set_a_set_fun$) (?v3 A_set$)) (=> (and (less$a ?v0 ?v1) (and (less_eq$ (fun_app$b ?v2 ?v1) ?v3) (forall ((?v4 A_set$) (?v5 A_set$)) (=> (less$a ?v4 ?v5) (less$a (fun_app$b ?v2 ?v4) (fun_app$b ?v2 ?v5))) ))) (less$a (fun_app$b ?v2 ?v0) ?v3)) ))
(assert (forall ((?v0 A_set$) (?v1 A_set$)) (! (= (less_eq$ ?v0 ?v1) (or (less$a ?v0 ?v1) (= ?v0 ?v1))) :pattern ((less_eq$ ?v0 ?v1)))))
(assert (forall ((?v0 A_set$) (?v1 A_set$)) (! (= (less_eq$ ?v0 ?v1) (or (less$a ?v0 ?v1) (= ?v0 ?v1))) :pattern ((less_eq$ ?v0 ?v1)))))
(assert (forall ((?v0 A_set$) (?v1 A_set$)) (! (= (less_eq$ ?v0 ?v1) (or (less$a ?v0 ?v1) (= ?v1 ?v0))) :pattern ((less_eq$ ?v0 ?v1)))))
(assert (forall ((?v0 A_set$) (?v1 A_set$)) (! (= (less$a ?v0 ?v1) (and (less_eq$ ?v0 ?v1) (not (less_eq$ ?v1 ?v0)))) :pattern ((less$a ?v0 ?v1)))))
(assert (forall ((?v0 A_set$) (?v1 A_set$)) (! (= (less$a ?v0 ?v1) (and (less_eq$ ?v0 ?v1) (not (= ?v0 ?v1)))) :pattern ((less$a ?v0 ?v1)))))
(assert (forall ((?v0 A_set$) (?v1 A_set$)) (! (= (less$a ?v0 ?v1) (and (less_eq$ ?v0 ?v1) (not (= ?v0 ?v1)))) :pattern ((less$a ?v0 ?v1)))))
(assert (forall ((?v0 A_set$) (?v1 A_set$)) (! (= (less$a ?v0 ?v1) (and (less_eq$ ?v0 ?v1) (not (= ?v1 ?v0)))) :pattern ((less$a ?v0 ?v1)))))
(assert (forall ((?v0 A_set$)) (not (less$a ?v0 ?v0)) ))
(assert (forall ((?v0 A_set$)) (not (less$a ?v0 ?v0)) ))
(assert (forall ((?v0 A_set$) (?v1 A_set$)) (=> (less$a ?v0 ?v1) (not (less$a ?v1 ?v0))) ))
(assert (forall ((?v0 A_set$) (?v1 A_set$)) (=> (less$a ?v0 ?v1) (not (= ?v0 ?v1))) ))
(assert (forall ((?v0 A_set$) (?v1 A_set$)) (=> (less$a ?v0 ?v1) (not (= ?v0 ?v1))) ))
(assert (forall ((?v0 A_set$) (?v1 A_set$)) (=> (less$a ?v0 ?v1) (not (= ?v1 ?v0))) ))
(assert (forall ((?v0 A_set$) (?v1 A_set$)) (=> (less$a ?v0 ?v1) (= (not (less$a ?v1 ?v0)) true)) ))
(assert (forall ((?v0 A_set$) (?v1 A_set$) (?v2 Bool)) (=> (less$a ?v0 ?v1) (= (=> (less$a ?v1 ?v0) ?v2) true)) ))
(assert (forall ((?v0 A_set$) (?v1 A_set$)) (=> (less$a ?v0 ?v1) (= (= ?v0 ?v1) false)) ))
(assert (forall ((?v0 A_set$) (?v1 A_set$)) (=> (less$a ?v0 ?v1) (= (= ?v1 ?v0) false)) ))
(assert (forall ((?v0 A_set$) (?v1 A_set$)) (=> (and (less$a ?v0 ?v1) (less$a ?v1 ?v0)) false) ))
(assert (forall ((?v0 A_set$) (?v1 A_set$)) (=> (and (less$a ?v0 ?v1) (less$a ?v1 ?v0)) false) ))
(assert (forall ((?v0 A_set$) (?v1 A_set$)) (=> (and (less$a ?v0 ?v1) (less$a ?v1 ?v0)) false) ))
(assert (forall ((?v0 A_set$) (?v1 A_set$) (?v2 A_set$)) (=> (and (less$a ?v0 ?v1) (less$a ?v1 ?v2)) (less$a ?v0 ?v2)) ))
(assert (forall ((?v0 A_set$) (?v1 A_set$) (?v2 A_set$)) (=> (and (less$a ?v0 ?v1) (less$a ?v1 ?v2)) (less$a ?v0 ?v2)) ))
(assert (forall ((?v0 A_set$) (?v1 A_set$) (?v2 A_set$)) (=> (and (less$a ?v0 ?v1) (less$a ?v2 ?v0)) (less$a ?v2 ?v1)) ))
(assert (forall ((?v0 A_set$) (?v1 A_set_a_set_fun$) (?v2 A_set$) (?v3 A_set$)) (=> (and (less$a ?v0 (fun_app$b ?v1 ?v2)) (and (less$a ?v2 ?v3) (forall ((?v4 A_set$) (?v5 A_set$)) (=> (less$a ?v4 ?v5) (less$a (fun_app$b ?v1 ?v4) (fun_app$b ?v1 ?v5))) ))) (less$a ?v0 (fun_app$b ?v1 ?v3))) ))
(assert (forall ((?v0 A_set$) (?v1 A_set$) (?v2 A_set_a_set_fun$) (?v3 A_set$)) (=> (and (less$a ?v0 ?v1) (and (less$a (fun_app$b ?v2 ?v1) ?v3) (forall ((?v4 A_set$) (?v5 A_set$)) (=> (less$a ?v4 ?v5) (less$a (fun_app$b ?v2 ?v4) (fun_app$b ?v2 ?v5))) ))) (less$a (fun_app$b ?v2 ?v0) ?v3)) ))
(assert (forall ((?v0 A_set$) (?v1 A_set$) (?v2 A_set$)) (=> (and (less$a ?v0 ?v1) (= ?v1 ?v2)) (less$a ?v0 ?v2)) ))
(assert (forall ((?v0 A_set$) (?v1 A_set$) (?v2 A_set_a_set_fun$) (?v3 A_set$)) (=> (and (less$a ?v0 ?v1) (and (= (fun_app$b ?v2 ?v1) ?v3) (forall ((?v4 A_set$) (?v5 A_set$)) (=> (less$a ?v4 ?v5) (less$a (fun_app$b ?v2 ?v4) (fun_app$b ?v2 ?v5))) ))) (less$a (fun_app$b ?v2 ?v0) ?v3)) ))
(assert (forall ((?v0 A_set$) (?v1 A_set$)) (=> (and (less$a ?v0 ?v1) (=> (not false) (less$a ?v1 ?v0))) false) ))
(assert (forall ((?v0 A_set$) (?v1 A_set$) (?v2 A_set$)) (=> (and (= ?v0 ?v1) (less$a ?v1 ?v2)) (less$a ?v0 ?v2)) ))
(assert (forall ((?v0 A_set$) (?v1 A_set_a_set_fun$) (?v2 A_set$) (?v3 A_set$)) (=> (and (= ?v0 (fun_app$b ?v1 ?v2)) (and (less$a ?v2 ?v3) (forall ((?v4 A_set$) (?v5 A_set$)) (=> (less$a ?v4 ?v5) (less$a (fun_app$b ?v1 ?v4) (fun_app$b ?v1 ?v5))) ))) (less$a ?v0 (fun_app$b ?v1 ?v3))) ))
(assert (forall ((?v0 A_set$) (?v1 A_set$)) (! (= (less$a ?v0 ?v1) (and (= ?v1 (fun_app$b (sup$ ?v1) ?v0)) (not (= ?v1 ?v0)))) :pattern ((less$a ?v0 ?v1)))))
(assert (forall ((?v0 A_set$) (?v1 A_set$) (?v2 A_set$)) (=> (and (less$a (fun_app$b (sup$ ?v0) ?v1) ?v2) (=> (and (less$a ?v0 ?v2) (less$a ?v1 ?v2)) false)) false) ))
(assert (forall ((?v0 A_set$) (?v1 A_set$) (?v2 A_set$)) (=> (less$a ?v0 ?v1) (less$a ?v0 (fun_app$b (sup$ ?v2) ?v1))) ))
(assert (forall ((?v0 A_set$) (?v1 A_set$) (?v2 A_set$)) (=> (less$a ?v0 ?v1) (less$a ?v0 (fun_app$b (sup$ ?v1) ?v2))) ))
(assert (forall ((?v0 A_set$) (?v1 A_set$) (?v2 A_set$)) (=> (less$a ?v0 ?v1) (less$a ?v0 (fun_app$b (sup$ ?v2) ?v1))) ))
(assert (forall ((?v0 A_set$) (?v1 A_set$) (?v2 A_set$)) (=> (less$a ?v0 ?v1) (less$a ?v0 (fun_app$b (sup$ ?v1) ?v2))) ))
(assert (forall ((?v0 A_set$) (?v1 A_set$)) (! (= (less$a ?v0 ?v1) (and (less_eq$ ?v0 ?v1) (not (= ?v0 ?v1)))) :pattern ((less$a ?v0 ?v1)))))
(assert (forall ((?v0 A_set$) (?v1 A_set$)) (! (= (less$a ?v0 ?v1) (and (less_eq$ ?v0 ?v1) (not (less_eq$ ?v1 ?v0)))) :pattern ((less$a ?v0 ?v1)))))
(assert (forall ((?v0 A_set$) (?v1 A_set$)) (! (= (less_eq$ ?v0 ?v1) (or (less$a ?v0 ?v1) (= ?v0 ?v1))) :pattern ((less_eq$ ?v0 ?v1)))))
(assert (forall ((?v0 A_set$) (?v1 A_set$)) (=> (and (less$a ?v0 ?v1) (=> (and (less_eq$ ?v0 ?v1) (not (less_eq$ ?v1 ?v0))) false)) false) ))
(assert (forall ((?v0 A_set$) (?v1 A_set$) (?v2 A_set$)) (=> (and (less$a ?v0 ?v1) (less_eq$ ?v1 ?v2)) (less$a ?v0 ?v2)) ))
(assert (forall ((?v0 A_set$) (?v1 A_set$)) (=> (less$a ?v0 ?v1) (less_eq$ ?v0 ?v1)) ))
(assert (forall ((?v0 A_set$) (?v1 A_set$) (?v2 A_set$)) (=> (and (less_eq$ ?v0 ?v1) (less$a ?v1 ?v2)) (less$a ?v0 ?v2)) ))
(assert (forall ((?v0 A_b_rbt$)) (=> (and (=> (= ?v0 empty$) false) (forall ((?v1 Color$) (?v2 A_b_rbt$) (?v3 A$) (?v4 B$) (?v5 A_b_rbt$)) (=> (= ?v0 (branch$ ?v1 ?v2 ?v3 ?v4 ?v5)) false) )) false) ))
(assert (forall ((?v0 Color$) (?v1 A_b_rbt$) (?v2 A$) (?v3 B$) (?v4 A_b_rbt$)) (not (= empty$ (branch$ ?v0 ?v1 ?v2 ?v3 ?v4))) ))
(assert (forall ((?v0 A_a_bool_fun_fun$) (?v1 A$)) (! (= (fun_app$e (rbt_greater$ ?v0 ?v1) empty$) true) :pattern ((rbt_greater$ ?v0 ?v1)))))
(assert (forall ((?v0 A_a_bool_fun_fun$) (?v1 A$)) (! (= (fun_app$e (rbt_less$ ?v0 ?v1) empty$) true) :pattern ((rbt_less$ ?v0 ?v1)))))
(assert (forall ((?v0 A_a_bool_fun_fun$)) (! (= (fun_app$e (rbt_sorted$ ?v0) empty$) true) :pattern ((rbt_sorted$ ?v0)))))
(assert (forall ((?v0 A_set$) (?v1 A_set$)) (= (= ?v0 ?v1) (and (less_eq$ ?v0 ?v1) (less_eq$ ?v1 ?v0))) ))
(assert (forall ((?v0 A_set$) (?v1 A_set_a_set_fun$) (?v2 A_set$) (?v3 A_set$)) (=> (and (= ?v0 (fun_app$b ?v1 ?v2)) (and (less_eq$ ?v2 ?v3) (forall ((?v4 A_set$) (?v5 A_set$)) (=> (less_eq$ ?v4 ?v5) (less_eq$ (fun_app$b ?v1 ?v4) (fun_app$b ?v1 ?v5))) ))) (less_eq$ ?v0 (fun_app$b ?v1 ?v3))) ))
(assert (forall ((?v0 A_set$) (?v1 A_set$) (?v2 A_set$)) (=> (and (= ?v0 ?v1) (less_eq$ ?v1 ?v2)) (less_eq$ ?v0 ?v2)) ))
(assert (forall ((?v0 A_set$) (?v1 A_set$)) (=> (= ?v0 ?v1) (less_eq$ ?v0 ?v1)) ))
(assert (forall ((?v0 A_set$) (?v1 A_set$) (?v2 A_set_a_set_fun$) (?v3 A_set$)) (=> (and (less_eq$ ?v0 ?v1) (and (= (fun_app$b ?v2 ?v1) ?v3) (forall ((?v4 A_set$) (?v5 A_set$)) (=> (less_eq$ ?v4 ?v5) (less_eq$ (fun_app$b ?v2 ?v4) (fun_app$b ?v2 ?v5))) ))) (less_eq$ (fun_app$b ?v2 ?v0) ?v3)) ))
(assert (forall ((?v0 A_set$) (?v1 A_set$) (?v2 A_set$)) (=> (and (less_eq$ ?v0 ?v1) (= ?v1 ?v2)) (less_eq$ ?v0 ?v2)) ))
(assert (forall ((?v0 A_set$) (?v1 A_set$) (?v2 A_set_a_set_fun$) (?v3 A_set$)) (=> (and (less_eq$ ?v0 ?v1) (and (less_eq$ (fun_app$b ?v2 ?v1) ?v3) (forall ((?v4 A_set$) (?v5 A_set$)) (=> (less_eq$ ?v4 ?v5) (less_eq$ (fun_app$b ?v2 ?v4) (fun_app$b ?v2 ?v5))) ))) (less_eq$ (fun_app$b ?v2 ?v0) ?v3)) ))
(check-sat)
(exit)

